; benchmark generated from python API
(set-info :status unknown)
(declare-fun DISJ_W_S2_R_S1 () Bool)
(declare-fun W_S2_V5 () Bool)
(declare-fun W_S2_V2 () Bool)
(declare-fun R_S2_V4 () Bool)
(declare-fun R_S2_V1 () Bool)
(declare-fun R_S2_V5 () Bool)
(declare-fun R_S2_V3 () Bool)
(declare-fun W_S2_V1 () Bool)
(declare-fun W_S2_V3 () Bool)
(declare-fun W_S1_V4 () Bool)
(declare-fun DISJ_W_S1_R_S2 () Bool)
(declare-fun DISJ_W_S2_R_S2 () Bool)
(declare-fun R_E1_V4 () Bool)
(declare-fun R_E1_V5 () Bool)
(declare-fun W_S1_V5 () Bool)
(declare-fun R_S2_V2 () Bool)
(declare-fun R_S1_V4 () Bool)
(declare-fun R_S1_V5 () Bool)
(declare-fun R_S1_V2 () Bool)
(declare-fun R_S1_V3 () Bool)
(declare-fun R_S1_V1 () Bool)
(declare-fun R_E1_V2 () Bool)
(declare-fun DISJ_W_S2_R_E1 () Bool)
(declare-fun DISJ_W_S1_W_S2 () Bool)
(declare-fun R_E1_V3 () Bool)
(declare-fun DISJ_W_S1_R_S1 () Bool)
(declare-fun W_S2_V4 () Bool)
(declare-fun W_S1_V3 () Bool)
(declare-fun W_S1_V2 () Bool)
(declare-fun W_S1_V1 () Bool)
(declare-fun R_E1_V1 () Bool)
(declare-fun DISJ_W_S1_R_E1 () Bool)
(assert
 (let (($x3609 (not W_S2_V5)))
 (let (($x1879 (not W_S2_V2)))
 (let (($x1036 (not R_S2_V4)))
 (let (($x2379 (not R_S2_V1)))
 (let (($x3030 (not (and $x2379 $x1036 $x1879 $x3609 DISJ_W_S2_R_S1))))
 (let (($x3734 (not (and $x2379 (not R_S2_V5) $x1036 $x1879 DISJ_W_S2_R_S1))))
 (let (($x487 (not (and $x2379 (not R_S2_V3) $x1879 $x3609 DISJ_W_S2_R_S1))))
 (let (($x2113 (not W_S2_V1)))
 (let (($x2467 (and $x2113 $x1879)))
 (let (($x290 (not $x2467)))
 (let (($x3420 (not (and (not R_S2_V3) $x1036 $x3609 DISJ_W_S2_R_S1))))
 (let (($x3076 (not (and $x1036 $x3609 (not W_S2_V3) DISJ_W_S2_R_S1))))
 (let (($x2793 (not (and (not R_S2_V3) (not W_S1_V4) $x3609 DISJ_W_S2_R_S1))))
 (let (($x2327 (not (and DISJ_W_S1_R_S2 DISJ_W_S2_R_S1))))
 (let (($x1587 (not (and $x1879 DISJ_W_S2_R_S2))))
 (let (($x1982 (not (and DISJ_W_S2_R_S1 DISJ_W_S2_R_S2))))
 (let (($x5006 (not (and W_S1_V4 R_E1_V4))))
 (let (($x2109 (not (and W_S1_V5 R_E1_V5))))
 (let (($x3528 (forall ((V3_0 Int) )(forall ((V2_0 Int) )(forall ((V5_0 Int) )(forall ((V4_0 Int) )(forall ((MW_S1_V1 Bool) )(forall ((MW_S1_V3 Bool) )(forall ((MW_S1_V2 Bool) )(forall ((MW_S1_V5 Bool) )(forall ((MW_S1_V4 Bool) )(forall ((MW_S2_V1 Bool) )(forall ((MW_S2_V3 Bool) )(forall ((MW_S2_V2 Bool) )(forall ((MW_S2_V5 Bool) )(forall ((MW_S2_V4 Bool) )(forall ((S1_V1_!2447 Int) )(forall ((S1_V1_!2464 Int) )(forall ((S1_V1_!2474 Int) )(forall ((S2_V5_!2456 Int) )(forall ((S2_V5_!2461 Int) )(forall ((S2_V5_!2472 Int) )(forall ((S2_V5_!2482 Int) )(forall ((S1_V3_!2448 Int) )(forall ((S1_V3_!2465 Int) )(forall ((S1_V3_!2475 Int) )(forall ((S1_V2_!2449 Int) )(forall ((S1_V2_!2466 Int) )(forall ((S1_V2_!2476 Int) )(forall ((E1_!2446 Int) )(forall ((E1_!2452 Int) )(forall ((E1_!2463 Int) )(forall ((S2_V4_!2457 Int) )(forall ((S2_V4_!2462 Int) )(forall ((S2_V4_!2473 Int) )(forall ((S2_V4_!2483 Int) )(forall ((S1_V5_!2450 Int) )(forall ((S1_V5_!2467 Int) )(forall ((S1_V5_!2477 Int) )(forall ((S2_V1_!2453 Int) )(forall ((S2_V1_!2458 Int) )(forall ((S2_V1_!2469 Int) )(forall ((S2_V1_!2479 Int) )(forall ((S1_V4_!2451 Int) )(forall ((S1_V4_!2468 Int) )(forall ((S1_V4_!2478 Int) )(forall ((S2_V2_!2455 Int) )(forall ((S2_V2_!2460 Int) )(forall ((S2_V2_!2471 Int) )(forall ((S2_V2_!2481 Int) )(forall ((S2_V3_!2454 Int) )(forall ((S2_V3_!2459 Int) )(forall ((S2_V3_!2470 Int) )(forall ((S2_V3_!2480 Int) )(let (($x2130 (= (ite MW_S2_V4 S2_V4_!2462 (ite MW_S1_V4 S1_V4_!2451 V4_0)) (ite MW_S2_V4 S2_V4_!2483 (ite MW_S1_V4 S1_V4_!2478 (ite MW_S2_V4 S2_V4_!2473 (ite MW_S1_V4 S1_V4_!2468 V4_0)))))))
 (let (($x4556 (= (ite MW_S2_V5 S2_V5_!2461 (ite MW_S1_V5 S1_V5_!2450 V5_0)) (ite MW_S2_V5 S2_V5_!2482 (ite MW_S1_V5 S1_V5_!2477 (ite MW_S2_V5 S2_V5_!2472 (ite MW_S1_V5 S1_V5_!2467 V5_0)))))))
 (let ((?x1559 (ite MW_S1_V2 S1_V2_!2466 V2_0)))
 (let ((?x1007 (ite MW_S2_V2 S2_V2_!2471 ?x1559)))
 (let ((?x741 (ite MW_S1_V2 S1_V2_!2476 ?x1007)))
 (let ((?x1438 (ite MW_S2_V2 S2_V2_!2481 ?x741)))
 (let ((?x1178 (ite MW_S1_V2 S1_V2_!2449 V2_0)))
 (let ((?x1092 (ite MW_S2_V2 S2_V2_!2460 ?x1178)))
 (let (($x5139 (= (ite MW_S2_V3 S2_V3_!2459 (ite MW_S1_V3 S1_V3_!2448 V3_0)) (ite MW_S2_V3 S2_V3_!2480 (ite MW_S1_V3 S1_V3_!2475 (ite MW_S2_V3 S2_V3_!2470 (ite MW_S1_V3 S1_V3_!2465 V3_0)))))))
 (let ((?x2658 (ite MW_S1_V1 S1_V1_!2464 E1_!2463)))
 (let ((?x1382 (ite MW_S2_V1 S2_V1_!2469 ?x2658)))
 (let ((?x271 (+ 1 ?x1382)))
 (let ((?x4032 (ite MW_S1_V1 S1_V1_!2474 ?x271)))
 (let ((?x1029 (ite MW_S2_V1 S2_V1_!2479 ?x4032)))
 (let ((?x2644 (ite MW_S2_V1 S2_V1_!2453 E1_!2452)))
 (let ((?x5952 (+ 1 ?x2644)))
 (let ((?x1880 (ite MW_S2_V1 S2_V1_!2458 ?x5952)))
 (let (($x2155 (and (not (<= V2_0 E1_!2446)) (>= (ite MW_S1_V1 S1_V1_!2447 E1_!2446) (+ (- 1) ?x1178)) (not (<= ?x1178 E1_!2452)) (not (<= (ite MW_S2_V2 S2_V2_!2455 ?x1178) ?x5952)) (>= ?x1880 (+ (- 1) ?x1092)) (not (<= V2_0 E1_!2463)) (not (<= ?x1007 ?x271)) (>= ?x1029 (+ (- 1) ?x1438)))))
 (let (($x2005 (= S2_V3_!2480 S2_V3_!2470)))
 (let ((?x5855 (ite MW_S1_V4 S1_V4_!2468 V4_0)))
 (let ((?x1978 (ite MW_S2_V4 S2_V4_!2473 ?x5855)))
 (let ((?x3499 (ite MW_S1_V4 S1_V4_!2478 ?x1978)))
 (let (($x1036 (not R_S2_V4)))
 (let ((?x3312 (ite MW_S1_V5 S1_V5_!2467 V5_0)))
 (let ((?x5780 (ite MW_S2_V5 S2_V5_!2472 ?x3312)))
 (let ((?x5037 (ite MW_S1_V5 S1_V5_!2477 ?x5780)))
 (let (($x5434 (not R_S2_V5)))
 (let ((?x371 (ite MW_S1_V3 S1_V3_!2465 V3_0)))
 (let ((?x518 (ite MW_S2_V3 S2_V3_!2470 ?x371)))
 (let ((?x3616 (ite MW_S1_V3 S1_V3_!2475 ?x518)))
 (let (($x2392 (not R_S2_V3)))
 (let (($x2068 (and (or (not R_S2_V1) (= ?x4032 ?x2658)) (or $x2392 (= ?x3616 ?x371)) (or (not R_S2_V2) (= ?x741 ?x1559)) (or $x5434 (= ?x5037 ?x3312)) (or $x1036 (= ?x3499 ?x5855)))))
 (let (($x4166 (not $x2068)))
 (let (($x6029 (= S2_V3_!2480 S2_V3_!2459)))
 (let (($x46 (and (or (not R_S2_V1) (= ?x4032 ?x5952)) (or $x2392 (= ?x3616 (ite MW_S2_V3 S2_V3_!2454 (ite MW_S1_V3 S1_V3_!2448 V3_0)))) (or (not R_S2_V2) (= ?x741 (ite MW_S2_V2 S2_V2_!2455 ?x1178))) (or $x5434 (= ?x5037 (ite MW_S2_V5 S2_V5_!2456 (ite MW_S1_V5 S1_V5_!2450 V5_0)))) (or $x1036 (= ?x3499 (ite MW_S2_V4 S2_V4_!2457 (ite MW_S1_V4 S1_V4_!2451 V4_0)))))))
 (let (($x2860 (not $x46)))
 (let (($x5892 (= S2_V3_!2470 S2_V3_!2459)))
 (let (($x3049 (and (or (not R_S2_V1) (= ?x2658 ?x5952)) (or $x2392 (= ?x371 (ite MW_S2_V3 S2_V3_!2454 (ite MW_S1_V3 S1_V3_!2448 V3_0)))) (or (not R_S2_V2) (= ?x1559 (ite MW_S2_V2 S2_V2_!2455 ?x1178))) (or $x5434 (= ?x3312 (ite MW_S2_V5 S2_V5_!2456 (ite MW_S1_V5 S1_V5_!2450 V5_0)))) (or $x1036 (= ?x5855 (ite MW_S2_V4 S2_V4_!2457 (ite MW_S1_V4 S1_V4_!2451 V4_0)))))))
 (let (($x2486 (not $x3049)))
 (let (($x606 (= S2_V3_!2454 S2_V3_!2480)))
 (let (($x2634 (and (or (not R_S2_V1) (= E1_!2452 ?x4032)) (or $x2392 (= (ite MW_S1_V3 S1_V3_!2448 V3_0) ?x3616)) (or (not R_S2_V2) (= ?x1178 ?x741)) (or $x5434 (= (ite MW_S1_V5 S1_V5_!2450 V5_0) ?x5037)) (or $x1036 (= (ite MW_S1_V4 S1_V4_!2451 V4_0) ?x3499)))))
 (let (($x1089 (not $x2634)))
 (let (($x6081 (= S2_V3_!2454 S2_V3_!2470)))
 (let (($x778 (and (or (not R_S2_V1) (= E1_!2452 ?x2658)) (or $x2392 (= (ite MW_S1_V3 S1_V3_!2448 V3_0) ?x371)) (or (not R_S2_V2) (= ?x1178 ?x1559)) (or $x5434 (= (ite MW_S1_V5 S1_V5_!2450 V5_0) ?x3312)) (or $x1036 (= (ite MW_S1_V4 S1_V4_!2451 V4_0) ?x5855)))))
 (let (($x2751 (not $x778)))
 (let (($x5218 (= S2_V3_!2454 S2_V3_!2459)))
 (let (($x478 (or $x1036 (= (ite MW_S1_V4 S1_V4_!2451 V4_0) (ite MW_S2_V4 S2_V4_!2457 (ite MW_S1_V4 S1_V4_!2451 V4_0))))))
 (let (($x2494 (or $x5434 (= (ite MW_S1_V5 S1_V5_!2450 V5_0) (ite MW_S2_V5 S2_V5_!2456 (ite MW_S1_V5 S1_V5_!2450 V5_0))))))
 (let (($x1872 (or $x2392 (= (ite MW_S1_V3 S1_V3_!2448 V3_0) (ite MW_S2_V3 S2_V3_!2454 (ite MW_S1_V3 S1_V3_!2448 V3_0))))))
 (let (($x3628 (and (or (not R_S2_V1) (= E1_!2452 ?x5952)) $x1872 (or (not R_S2_V2) (= ?x1178 (ite MW_S2_V2 S2_V2_!2455 ?x1178))) $x2494 $x478)))
 (let (($x2449 (not $x3628)))
 (let (($x5185 (= S2_V2_!2481 S2_V2_!2455)))
 (let (($x2575 (and (or (not R_S2_V1) (= ?x4032 E1_!2452)) (or $x2392 (= ?x3616 (ite MW_S1_V3 S1_V3_!2448 V3_0))) (or (not R_S2_V2) (= ?x741 ?x1178)) (or $x5434 (= ?x5037 (ite MW_S1_V5 S1_V5_!2450 V5_0))) (or $x1036 (= ?x3499 (ite MW_S1_V4 S1_V4_!2451 V4_0))))))
 (let (($x1424 (not $x2575)))
 (let (($x2384 (= S2_V2_!2471 S2_V2_!2481)))
 (let (($x2529 (and (or (not R_S2_V1) (= ?x2658 ?x4032)) (or $x2392 (= ?x371 ?x3616)) (or (not R_S2_V2) (= ?x1559 ?x741)) (or $x5434 (= ?x3312 ?x5037)) (or $x1036 (= ?x5855 ?x3499)))))
 (let (($x3294 (not $x2529)))
 (let (($x2176 (= S2_V2_!2471 S2_V2_!2455)))
 (let (($x687 (and (or (not R_S2_V1) (= ?x2658 E1_!2452)) (or $x2392 (= ?x371 (ite MW_S1_V3 S1_V3_!2448 V3_0))) (or (not R_S2_V2) (= ?x1559 ?x1178)) (or $x5434 (= ?x3312 (ite MW_S1_V5 S1_V5_!2450 V5_0))) (or $x1036 (= ?x5855 (ite MW_S1_V4 S1_V4_!2451 V4_0))))))
 (let (($x2592 (not $x687)))
 (let (($x5363 (not R_S1_V4)))
 (let (($x3019 (or $x5363 (= ?x1978 V4_0))))
 (let (($x1344 (not R_S1_V5)))
 (let (($x866 (or $x1344 (= ?x5780 V5_0))))
 (let (($x3728 (not R_S1_V2)))
 (let (($x1629 (or $x3728 (= ?x1007 V2_0))))
 (let (($x1051 (not R_S1_V3)))
 (let (($x5087 (or $x1051 (= ?x518 V3_0))))
 (let (($x2223 (and (or (not R_S1_V1) (= ?x1382 (+ (- 1) E1_!2446))) $x5087 $x1629 $x866 $x3019)))
 (let (($x5927 (not $x2223)))
 (let (($x5315 (= S1_V4_!2468 S1_V4_!2478)))
 (let (($x29 (or $x5363 (= V4_0 ?x1978))))
 (let (($x153 (or $x1344 (= V5_0 ?x5780))))
 (let (($x3464 (or $x3728 (= V2_0 ?x1007))))
 (let (($x3507 (or $x1051 (= V3_0 ?x518))))
 (let (($x2521 (not (and (or (not R_S1_V1) (= E1_!2463 ?x271)) $x3507 $x3464 $x153 $x29))))
 (let (($x4315 (and (or (not R_S2_V1) (= ?x2644 (+ (- 1) ?x4032))) (or $x2392 (= (ite MW_S2_V3 S2_V3_!2454 (ite MW_S1_V3 S1_V3_!2448 V3_0)) ?x3616)) (or (not R_S2_V2) (= (ite MW_S2_V2 S2_V2_!2455 ?x1178) ?x741)) (or $x5434 (= (ite MW_S2_V5 S2_V5_!2456 (ite MW_S1_V5 S1_V5_!2450 V5_0)) ?x5037)) (or $x1036 (= (ite MW_S2_V4 S2_V4_!2457 (ite MW_S1_V4 S1_V4_!2451 V4_0)) ?x3499)))))
 (let (($x3675 (not $x4315)))
 (let (($x587 (and (or (not R_S1_V1) (= ?x1382 (+ (- 1) E1_!2463))) $x5087 $x1629 $x866 $x3019)))
 (let (($x3645 (not $x587)))
 (let (($x3359 (and (or (not R_S2_V1) (= ?x2644 (+ (- 1) ?x2658))) (or $x2392 (= (ite MW_S2_V3 S2_V3_!2454 (ite MW_S1_V3 S1_V3_!2448 V3_0)) ?x371)) (or (not R_S2_V2) (= (ite MW_S2_V2 S2_V2_!2455 ?x1178) ?x1559)) (or $x5434 (= (ite MW_S2_V5 S2_V5_!2456 (ite MW_S1_V5 S1_V5_!2450 V5_0)) ?x3312)) (or $x1036 (= (ite MW_S2_V4 S2_V4_!2457 (ite MW_S1_V4 S1_V4_!2451 V4_0)) ?x5855)))))
 (let (($x2900 (not $x3359)))
 (let (($x3189 (= E1_!2463 E1_!2446)))
 (let (($x763 (and (or (not R_E1_V2) (= ?x1178 V2_0)) (or (not R_E1_V5) (= (ite MW_S1_V5 S1_V5_!2450 V5_0) V5_0)) (or (not R_E1_V4) (= (ite MW_S1_V4 S1_V4_!2451 V4_0) V4_0)))))
 (let (($x6000 (not $x763)))
 (let (($x241 (or $x1036 (= (ite MW_S2_V4 S2_V4_!2457 (ite MW_S1_V4 S1_V4_!2451 V4_0)) (ite MW_S1_V4 S1_V4_!2451 V4_0)))))
 (let (($x467 (or $x5434 (= (ite MW_S2_V5 S2_V5_!2456 (ite MW_S1_V5 S1_V5_!2450 V5_0)) (ite MW_S1_V5 S1_V5_!2450 V5_0)))))
 (let (($x5211 (or $x2392 (= (ite MW_S2_V3 S2_V3_!2454 (ite MW_S1_V3 S1_V3_!2448 V3_0)) (ite MW_S1_V3 S1_V3_!2448 V3_0)))))
 (let (($x5764 (and (or (not R_S2_V1) (= ?x2644 (+ (- 1) E1_!2452))) $x5211 (or (not R_S2_V2) (= (ite MW_S2_V2 S2_V2_!2455 ?x1178) ?x1178)) $x467 $x241)))
 (let (($x3569 (or (not (and (or (not R_S1_V1) (= E1_!2446 ?x271)) $x3507 $x3464 $x153 $x29)) (= S1_V1_!2447 S1_V1_!2474))))
 (let (($x2645 (and $x3569 (or (not (or (not R_S1_V1) $x3189)) (= S1_V1_!2464 S1_V1_!2447)) (or $x2521 (= S1_V1_!2464 S1_V1_!2474)) (or $x2751 (= S2_V5_!2456 S2_V5_!2472)) (or (not $x5764) (= S2_V5_!2461 S2_V5_!2456)) (or $x2900 (= S2_V5_!2461 S2_V5_!2472)) (or $x1424 (= S2_V5_!2482 S2_V5_!2456)) (or $x2860 (= S2_V5_!2482 S2_V5_!2461)) (or $x4166 (= S2_V5_!2482 S2_V5_!2472)) (or (not (or (not R_S1_V1) $x3189)) (= S1_V3_!2465 S1_V3_!2448)) (or $x2521 (= S1_V3_!2465 S1_V3_!2475)) (or $x5927 (= S1_V3_!2475 S1_V3_!2448)) (or (not (or (not R_S1_V1) $x3189)) (= S1_V2_!2466 S1_V2_!2449)) (or $x5927 (= S1_V2_!2476 S1_V2_!2449)) (or $x3645 (= S1_V2_!2476 S1_V2_!2466)) (or $x6000 (= E1_!2452 E1_!2446)) (or $x6000 (= E1_!2452 E1_!2463)) $x3189 (or $x2449 (= S2_V4_!2457 S2_V4_!2462)) (or $x2751 (= S2_V4_!2457 S2_V4_!2473)) (or $x1089 (= S2_V4_!2457 S2_V4_!2483)) (or $x2900 (= S2_V4_!2462 S2_V4_!2473)) (or $x3675 (= S2_V4_!2462 S2_V4_!2483)) (or $x4166 (= S2_V4_!2483 S2_V4_!2473)) (or (not (or (not R_S1_V1) $x3189)) (= S1_V5_!2467 S1_V5_!2450)) (or $x5927 (= S1_V5_!2477 S1_V5_!2450)) (or $x3645 (= S1_V5_!2477 S1_V5_!2467)) (or $x2449 (= S2_V1_!2453 S2_V1_!2458)) (or $x1089 (= S2_V1_!2453 S2_V1_!2479)) (or $x3675 (= S2_V1_!2458 S2_V1_!2479)) (or $x2592 (= S2_V1_!2469 S2_V1_!2453)) (or $x2486 (= S2_V1_!2469 S2_V1_!2458)) (or $x3294 (= S2_V1_!2469 S2_V1_!2479)) (or (not (or (not R_S1_V1) $x3189)) (= S1_V4_!2468 S1_V4_!2451)) (or $x2521 $x5315) (or $x5927 (= S1_V4_!2478 S1_V4_!2451)) (or $x2449 (= S2_V2_!2455 S2_V2_!2460)) (or $x2592 $x2176) (or $x2486 (= S2_V2_!2471 S2_V2_!2460)) (or $x3294 $x2384) (or $x1424 $x5185) (or $x2860 (= S2_V2_!2481 S2_V2_!2460)) (or $x2449 $x5218) (or $x2751 $x6081) (or $x1089 $x606) (or $x2486 $x5892) (or $x2860 $x6029) (or $x4166 $x2005) (not MW_S1_V1) (not MW_S1_V2) (or (not MW_S1_V5) W_S1_V5) (or (not MW_S1_V4) W_S1_V4) (or (not MW_S2_V1) W_S2_V1) (or (not MW_S2_V3) W_S2_V3) (or (not MW_S2_V2) W_S2_V2) (or (not MW_S2_V5) W_S2_V5))))
 (or (not $x2645) (not $x2155) (and (= ?x1880 ?x1029) $x5139 (= ?x1092 ?x1438) $x4556 $x2130))))))))))))))))))))))))))))))))))))))))))))))))))))))))))))))))))))))))))))))))))))))))))))))
 )
 )
 )
 )
 )
 )
 )
 )
 )
 )
 )
 )
 )
 )
 )
 )
 )
 )
 )
 )
 )
 )
 )
 )
 )
 )
 )
 )
 )
 )
 )
 )
 )
 )
 )
 )
 )
 )
 )
 )
 )
 )
 )
 )
 )
 )
 )
 )
 )
 )
 )
 ))
 (let (($x2711 (not (or (and W_S2_V2 R_E1_V2) (and W_S2_V5 R_E1_V5) R_E1_V4))))
 (let (($x1320 (= DISJ_W_S2_R_E1 $x2711)))
 (let (($x243 (and W_S2_V5 R_S2_V5)))
 (let (($x313 (and W_S2_V2 R_S2_V2)))
 (let (($x2012 (and W_S2_V3 R_S2_V3)))
 (let (($x248 (and W_S2_V1 R_S2_V1)))
 (let (($x4224 (= DISJ_W_S2_R_S2 (not (or $x248 $x2012 $x313 $x243 R_S2_V4)))))
 (let (($x5925 (and W_S2_V5 R_S1_V5)))
 (let (($x977 (and W_S2_V2 R_S1_V2)))
 (let (($x3045 (and W_S2_V3 R_S1_V3)))
 (let (($x5942 (and W_S2_V1 R_S1_V1)))
 (let (($x1670 (= DISJ_W_S2_R_S1 (not (or $x5942 $x3045 $x977 $x5925 R_S1_V4)))))
 (let (($x401 (= DISJ_W_S1_W_S2 (not (or W_S2_V3 (and W_S1_V5 W_S2_V5) W_S1_V4)))))
 (let (($x5351 (not R_E1_V3)))
 (let (($x4571 (not (or R_S2_V3 (and W_S1_V5 R_S2_V5) (and W_S1_V4 R_S2_V4)))))
 (let (($x3587 (= DISJ_W_S1_R_S2 $x4571)))
 (let (($x2526 (not (or R_S1_V3 (and W_S1_V5 R_S1_V5) (and W_S1_V4 R_S1_V4)))))
 (let (($x4397 (= DISJ_W_S1_R_S1 $x2526)))
 (let (($x572 (not R_S1_V1)))
 (let (($x2150 (and $x572 DISJ_W_S1_R_S1)))
 (let (($x5438 (and $x1879 DISJ_W_S2_R_S1 DISJ_W_S1_R_S1)))
 (let (($x3137 (or $x5438 $x2467 $x2150)))
 (let (($x1638 (not W_S1_V2)))
 (let (($x1974 (not W_S1_V1)))
 (let (($x4983 (not R_E1_V1)))
 (let (($x1780 (and DISJ_W_S1_R_E1 $x4983 $x1974 $x1638 $x3137 W_S1_V3 W_S2_V4 $x4397 $x3587 $x5351 $x401 $x1670 $x4224 $x1320 $x3528 $x2109 $x5006)))
 (and $x1780 $x1982 $x1587 $x2327 $x2793 $x3076 $x3420 $x290 $x487 $x3734 $x3030)))))))))))))))))))))))))))))))))))))))))))))))
(check-sat)
